NAME : XML100_2143_09
DIMENSION : 101
NB_CLUSTERS : 34
CLUSTERING_ALG : DBSCAN
CLUSTERING_PARAMS : eps(51), minSamples(3)
CLUSTERS
1 0
2 4 47 70 80
3 20 62 65
4 15 19 28 54 66
5 23 30 40
6 34 35 58 59 74 76
7 36 72 96
8 37 38 44 55
9 13 18 25 31 50 57 61 77
10 12 56
11 7 27 75
12 1 26
13 60 71 79 98
14 52 53 87
15 42 45
16 24 39
17 29 33
18 48 100
19 2 9
20 21 49 69 86 99
21 32 51 84
22 63 83
23 46 91
24 11 43 81
25 14 16 92
26 41 67 97
27 8 73
28 17 64 93
29 78 88
30 5 85 94
31 89 95
32 10 22 68
33 3 90
34 6 82
EOF